Problem:    problem1
Rows:       8
Columns:    4
Non-zeros:  20
Status:     OPTIMAL
Objective:  Profit = 416666.6667 (MAXimum)

   No.   Row name   St   Activity     Lower bound   Upper bound    Marginal
------ ------------ -- ------------- ------------- ------------- -------------
     1 Profit       B         416667                             
     2 HectaresP1   B        235.897                         400 
     3 HectaresP2   B        530.769                         900 
     4 WaterP1      NU           500                         500       233.333 
     5 WaterP2      NU          1200                        1200       233.333 
     6 BeetPortion  B        166.667                         800 
     7 CottonPortion
                    NU           600                         600       33.3333 
     8 SamePercentage
                    NS             0            -0             =         < eps

   No. Column name  St   Activity     Lower bound   Upper bound    Marginal
------ ------------ -- ------------- ------------- ------------- -------------
     1 x11          B        28.2051             0               
     2 x12          B        138.462             0               
     3 x21          B        207.692             0               
     4 x22          B        392.308             0               

Karush-Kuhn-Tucker optimality conditions:

KKT.PE: max.abs.err = 0.00e+00 on row 0
        max.rel.err = 0.00e+00 on row 0
        High quality

KKT.PB: max.abs.err = 0.00e+00 on row 0
        max.rel.err = 0.00e+00 on row 0
        High quality

KKT.DE: max.abs.err = 0.00e+00 on column 0
        max.rel.err = 0.00e+00 on column 0
        High quality

KKT.DB: max.abs.err = 0.00e+00 on row 0
        max.rel.err = 0.00e+00 on row 0
        High quality

End of output
